n_res = 4;
rcap = [27, 31, 86, 85];
rtype = [1, 1, 2, 2];
n_tasks = 16;
modes = [ {1, 2}, {3, 4}, {5, 6}, {7, 8}, {9, 10}, {11, 12}, {13, 14}, {15, 16}, {17, 18}, {19, 20}, {21, 22}, {23, 24}, {25, 26}, {27, 28}, {29, 30}, {31, 32} ];
succ = [ {4, 5, 11}, {5, 8}, {4, 7, 9}, {6, 10, 13}, {9, 15}, {14, 15, 16}, {10, 12, 14}, {11, 16}, {10, 14}, {16}, {12}, {13}, {15}, {}, {}, {} ];
n_opt = 32;
dur = [2, 6, 2, 6, 3, 5, 6, 6, 6, 7, 1, 2, 8, 8, 2, 10, 6, 9, 6, 6, 1, 8, 2, 9, 6, 8, 1, 2, 4, 9, 1, 2];
rreq = [|  1,  0,  0,  0,  8,  0,  0,  4,  9,  0,  0,  3,  0, 10,  4,  2,  2,  0,  0,  8,  0,  1,  0,  0,  0,  0,  7,  0,  5,  0,  8,  0
        |  0,  8,  5,  5,  0,  2,  8,  0,  0,  8,  6,  0, 10,  0,  0,  0,  0,  5,  1,  0,  5,  0,  8,  3,  7,  4,  0,  4,  0,  1,  0,  5
        |  5,  2,  8,  5,  5,  3,  5,  6,  4,  3,  6,  4,  4,  7,  7,  7,  4,  1,  5,  5, 10, 10,  8,  8,  5,  2,  6,  6,  4,  4,  6,  6
        |  9,  6,  9,  7,  4,  4, 10,  5,  3,  1,  2,  2,  4,  5,  9,  7,  9,  8,  3,  3,  5,  3, 10,  2,  3,  2,  5,  5,  7,  4,  7,  6 |];
